0
Node Left Objective IInf Best_Integer Best_Bound ItCnt Gap
0 0 0.0000 27 0.0000 17
0+ 0 nan nan 938.8131 0.0000 nan 100.00%
0 0 0.0000 29 938.8131 MIRcuts:36 100 100.00%
0+ 0 nan nan 770.9075 0.0000 nan 100.00%
0 0 0.0000 27 770.9075 Cuts:52 272 100.00%
0+ 0 nan nan 655.3947 0.0000 nan 100.00%
0 0 0.0000 23 655.3947 MIRcuts:49 415 100.00%
0+ 0 nan nan 519.2503 0.0000 nan 100.00%
0 0 0.0000 18 519.2503 Cuts:44 546 100.00%
0+ 0 nan nan 303.3261 0.0000 nan 100.00%
0 0 0.0000 18 303.3261 MIRcuts:56 617 100.00%
0+ 0 nan nan 259.5471 0.0000 nan 100.00%
0+ 0 nan nan 194.6862 0.0000 nan 100.00%
0+ 0 nan nan 170.2305 0.0000 nan 100.00%
0+ 0 nan nan 163.6888 0.0000 nan 100.00%
0 0 -1.00000e+75 0 163.6888 0.0000 617 100.00%
0 2 0.0000 18 163.6888 0.0000 617 100.00%
CPXPARAM_MIP_Cuts_Gomory-FlowCovers-MIRCut:Gomory 0
CPXPARAM_MIP_Cuts_Gomory-FlowCovers-MIRCut:FlowCovers 11
CPXPARAM_MIP_Cuts_Gomory-FlowCovers-MIRCut:MIRCut 0
1
Node Left Objective IInf Best_Integer Best_Bound ItCnt Gap
0 0 0.0000 11 0.0000 17
0+ 0 nan nan 339.1158 0.0000 nan 100.00%
0 0 0.0000 13 339.1158 Cuts:67 65 100.00%
0 0 0.0000 13 339.1158 MIRcuts:26 91 100.00%
0+ 0 nan nan 305.1081 0.0000 nan 100.00%
0+ 0 nan nan 137.8438 0.0000 nan 100.00%
0 2 0.0000 13 137.8438 0.0000 91 100.00%
CPXPARAM_MIP_Cuts_Gomory-FlowCovers-MIRCut:Gomory 0
CPXPARAM_MIP_Cuts_Gomory-FlowCovers-MIRCut:FlowCovers 10
CPXPARAM_MIP_Cuts_Gomory-FlowCovers-MIRCut:MIRCut 0
2
Node Left Objective IInf Best_Integer Best_Bound ItCnt Gap
0 0 0.0000 28 0.0000 17
0+ 0 nan nan 1173.5814 0.0000 nan 100.00%
0 0 0.0000 28 1173.5814 MIRcuts:46 65 100.00%
0+ 0 nan nan 636.0860 0.0000 nan 100.00%
0 0 0.0000 26 636.0860 MIRcuts:43 97 100.00%
0 0 0.0000 26 636.0860 MIRcuts:41 162 100.00%
0+ 0 nan nan 496.0062 0.0000 nan 100.00%
0+ 0 nan nan 299.8815 0.0000 nan 100.00%
0 2 0.0000 26 299.8815 0.0000 162 100.00%
CPXPARAM_MIP_Cuts_Gomory-FlowCovers-MIRCut:Gomory 0
CPXPARAM_MIP_Cuts_Gomory-FlowCovers-MIRCut:FlowCovers 5
CPXPARAM_MIP_Cuts_Gomory-FlowCovers-MIRCut:MIRCut 0
3
Node Left Objective IInf Best_Integer Best_Bound ItCnt Gap
0 0 0.0000 15 0.0000 17
0+ 0 nan nan 326.4207 0.0000 nan 100.00%
0 0 0.0000 15 326.4207 MIRcuts:29 33 100.00%
0+ 0 nan nan 325.6298 0.0000 nan 100.00%
0 0 0.0000 14 325.6298 MIRcuts:48 92 100.00%
0+ 0 nan nan 36.0898 0.0000 nan 100.00%
0+ 0 nan nan 22.7240 0.0000 nan 100.00%
0+ 0 nan nan 16.6891 0.0000 nan 100.00%
0 2 0.0000 14 16.6891 0.0000 92 100.00%
CPXPARAM_MIP_Cuts_Gomory-FlowCovers-MIRCut:Gomory 0
CPXPARAM_MIP_Cuts_Gomory-FlowCovers-MIRCut:FlowCovers 15
CPXPARAM_MIP_Cuts_Gomory-FlowCovers-MIRCut:MIRCut 0
4
Node Left Objective IInf Best_Integer Best_Bound ItCnt Gap
0 0 0.0000 10 0.0000 17
0+ 0 nan nan 478.5216 0.0000 nan 100.00%
0 0 0.0000 7 478.5216 MIRcuts:10 103 100.00%
0+ 0 nan nan 154.1616 0.0000 nan 100.00%
0 0 0.0000 7 154.1616 Cuts:16 170 100.00%
0+ 0 nan nan 67.3795 0.0000 nan 100.00%
0 0 0.0000 7 67.3795 Cuts:6 214 100.00%
0+ 0 nan nan 40.3168 0.0000 nan 100.00%
0+ 0 nan nan 9.1363 0.0000 nan 100.00%
0+ 0 nan nan 2.1002 0.0000 nan 100.00%
0+ 0 nan nan 1.4528 0.0000 nan 100.00%
0 0 -1.00000e+75 0 1.4528 0.0000 214 100.00%
0 2 0.0000 7 1.4528 0.0000 214 100.00%
CPXPARAM_MIP_Cuts_Gomory-FlowCovers-MIRCut:Gomory 1
CPXPARAM_MIP_Cuts_Gomory-FlowCovers-MIRCut:FlowCovers 3
CPXPARAM_MIP_Cuts_Gomory-FlowCovers-MIRCut:MIRCut 0
5
Node Left Objective IInf Best_Integer Best_Bound ItCnt Gap
0 0 0.0000 29 0.0000 17
0+ 0 nan nan 803.7695 0.0000 nan 100.00%
0 0 0.0000 28 803.7695 Cuts:84 131 100.00%
0+ 0 nan nan 697.6359 0.0000 nan 100.00%
0 0 0.0000 27 697.6359 MIRcuts:53 182 100.00%
0+ 0 nan nan 216.3856 0.0000 nan 100.00%
0 0 0.0000 27 216.3856 MIRcuts:11 200 100.00%
0+ 0 nan nan 168.2586 0.0000 nan 100.00%
0 2 0.0000 27 168.2586 0.0000 200 100.00%
CPXPARAM_MIP_Cuts_Gomory-FlowCovers-MIRCut:Gomory 0
CPXPARAM_MIP_Cuts_Gomory-FlowCovers-MIRCut:FlowCovers 23
CPXPARAM_MIP_Cuts_Gomory-FlowCovers-MIRCut:MIRCut 0
6
Node Left Objective IInf Best_Integer Best_Bound ItCnt Gap
0 0 0.0000 21 0.0000 17
0+ 0 nan nan 667.7910 0.0000 nan 100.00%
0 0 0.0000 23 667.7910 MIRcuts:51 109 100.00%
0+ 0 nan nan 580.7984 0.0000 nan 100.00%
0 0 0.0000 25 580.7984 MIRcuts:43 157 100.00%
0+ 0 nan nan 532.8887 0.0000 nan 100.00%
0+ 0 nan nan 205.2618 0.0000 nan 100.00%
0 2 0.0000 25 205.2618 0.0000 157 100.00%
CPXPARAM_MIP_Cuts_Gomory-FlowCovers-MIRCut:Gomory 0
CPXPARAM_MIP_Cuts_Gomory-FlowCovers-MIRCut:FlowCovers 6
CPXPARAM_MIP_Cuts_Gomory-FlowCovers-MIRCut:MIRCut 0
7
Node Left Objective IInf Best_Integer Best_Bound ItCnt Gap
0 0 0.0000 28 0.0000 17
0+ 0 nan nan 850.7058 0.0000 nan 100.00%
0 0 0.0000 29 850.7058 MIRcuts:50 123 100.00%
0 0 0.0000 26 850.7058 MIRcuts:57 215 100.00%
0+ 0 nan nan 489.8101 0.0000 nan 100.00%
0 0 0.0000 23 489.8101 MIRcuts:53 345 100.00%
0+ 0 nan nan 193.7766 0.0000 nan 100.00%
0 0 0.0000 23 193.7766 MIRcuts:39 428 100.00%
0+ 0 nan nan 140.8127 0.0000 nan 100.00%
0 2 0.0000 23 140.8127 0.0000 428 100.00%
CPXPARAM_MIP_Cuts_Gomory-FlowCovers-MIRCut:Gomory 0
CPXPARAM_MIP_Cuts_Gomory-FlowCovers-MIRCut:FlowCovers 16
CPXPARAM_MIP_Cuts_Gomory-FlowCovers-MIRCut:MIRCut 0
8
Node Left Objective IInf Best_Integer Best_Bound ItCnt Gap
0 0 0.0000 28 0.0000 16
0+ 0 nan nan 1285.5458 0.0000 nan 100.00%
0 0 0.0000 28 1285.5458 MIRcuts:28 26 100.00%
0 0 0.0000 28 1285.5458 MIRcuts:29 52 100.00%
0+ 0 nan nan 1153.6221 0.0000 nan 100.00%
0+ 0 nan nan 540.2456 0.0000 nan 100.00%
0 2 0.0000 28 540.2456 0.0000 52 100.00%
CPXPARAM_MIP_Cuts_Gomory-FlowCovers-MIRCut:Gomory 0
CPXPARAM_MIP_Cuts_Gomory-FlowCovers-MIRCut:FlowCovers 2
CPXPARAM_MIP_Cuts_Gomory-FlowCovers-MIRCut:MIRCut 0
9
Node Left Objective IInf Best_Integer Best_Bound ItCnt Gap
0 0 0.0000 28 0.0000 16
0+ 0 nan nan 905.7370 0.0000 nan 100.00%
0 0 0.0000 27 905.7370 MIRcuts:49 93 100.00%
0 0 0.0000 28 905.7370 MIRcuts:46 138 100.00%
0+ 0 nan nan 652.5047 0.0000 nan 100.00%
0 0 0.0000 28 652.5047 MIRcuts:37 181 100.00%
0+ 0 nan nan 381.8395 0.0000 nan 100.00%
0+ 0 nan nan 66.9930 0.0000 nan 100.00%
0 2 0.0000 28 66.9930 0.0000 181 100.00%
CPXPARAM_MIP_Cuts_Gomory-FlowCovers-MIRCut:Gomory 0
CPXPARAM_MIP_Cuts_Gomory-FlowCovers-MIRCut:FlowCovers 19
CPXPARAM_MIP_Cuts_Gomory-FlowCovers-MIRCut:MIRCut 0
10
Node Left Objective IInf Best_Integer Best_Bound ItCnt Gap
0 0 0.0000 28 0.0000 18
0+ 0 nan nan 1201.3851 0.0000 nan 100.00%
0 0 0.0000 29 1201.3851 MIRcuts:52 54 100.00%
0+ 0 nan nan 1086.9488 0.0000 nan 100.00%
0 0 0.0000 27 1086.9488 MIRcuts:30 148 100.00%
0+ 0 nan nan 361.3946 0.0000 nan 100.00%
0 0 0.0000 29 361.3946 Cuts:34 194 100.00%
0+ 0 nan nan 119.6492 0.0000 nan 100.00%
0+ 0 nan nan 96.8571 0.0000 nan 100.00%
0+ 0 nan nan 41.5918 0.0000 nan 100.00%
0 2 0.0000 29 41.5918 0.0000 194 100.00%
CPXPARAM_MIP_Cuts_Gomory-FlowCovers-MIRCut:Gomory 0
CPXPARAM_MIP_Cuts_Gomory-FlowCovers-MIRCut:FlowCovers 21
CPXPARAM_MIP_Cuts_Gomory-FlowCovers-MIRCut:MIRCut 0
11
Node Left Objective IInf Best_Integer Best_Bound ItCnt Gap
0 0 0.0000 28 0.0000 18
0+ 0 nan nan 995.6573 0.0000 nan 100.00%
0 0 0.0000 29 995.6573 MIRcuts:50 111 100.00%
0+ 0 nan nan 605.8643 0.0000 nan 100.00%
0 0 0.0000 27 605.8643 MIRcuts:53 217 100.00%
0 0 0.0000 27 605.8643 MIRcuts:42 284 100.00%
0+ 0 nan nan 400.8536 0.0000 nan 100.00%
0+ 0 nan nan 65.0095 0.0000 nan 100.00%
0 2 0.0000 27 65.0095 0.0000 284 100.00%
CPXPARAM_MIP_Cuts_Gomory-FlowCovers-MIRCut:Gomory 0
CPXPARAM_MIP_Cuts_Gomory-FlowCovers-MIRCut:FlowCovers 12
CPXPARAM_MIP_Cuts_Gomory-FlowCovers-MIRCut:MIRCut 0
12
Node Left Objective IInf Best_Integer Best_Bound ItCnt Gap
0 0 0.0000 29 0.0000 16
0+ 0 nan nan 1103.5671 0.0000 nan 100.00%
0 0 0.0000 29 1103.5671 MIRcuts:27 46 100.00%
0+ 0 nan nan 946.5019 0.0000 nan 100.00%
0 0 0.0000 29 946.5019 MIRcuts:30 78 100.00%
0+ 0 nan nan 304.8265 0.0000 nan 100.00%
0 2 0.0000 29 304.8265 0.0000 78 100.00%
CPXPARAM_MIP_Cuts_Gomory-FlowCovers-MIRCut:Gomory 0
CPXPARAM_MIP_Cuts_Gomory-FlowCovers-MIRCut:FlowCovers 2
CPXPARAM_MIP_Cuts_Gomory-FlowCovers-MIRCut:MIRCut 0
13
Node Left Objective IInf Best_Integer Best_Bound ItCnt Gap
0 0 0.0000 30 0.0000 18
0+ 0 nan nan 885.9934 0.0000 nan 100.00%
0 0 0.0000 29 885.9934 MIRcuts:52 93 100.00%
0 0 0.0000 30 885.9934 MIRcuts:44 146 100.00%
0+ 0 nan nan 526.6330 0.0000 nan 100.00%
0 0 0.0000 30 526.6330 MIRcuts:34 198 100.00%
0+ 0 nan nan 314.6158 0.0000 nan 100.00%
0+ 0 nan nan 44.9620 0.0000 nan 100.00%
0 2 0.0000 30 44.9620 0.0000 198 100.00%
CPXPARAM_MIP_Cuts_Gomory-FlowCovers-MIRCut:Gomory 0
CPXPARAM_MIP_Cuts_Gomory-FlowCovers-MIRCut:FlowCovers 15
CPXPARAM_MIP_Cuts_Gomory-FlowCovers-MIRCut:MIRCut 0
14
Node Left Objective IInf Best_Integer Best_Bound ItCnt Gap
0 0 0.0000 29 0.0000 18
0+ 0 nan nan 1103.5570 0.0000 nan 100.00%
0 0 0.0000 31 1103.5570 MIRcuts:47 108 100.00%
0+ 0 nan nan 940.7879 0.0000 nan 100.00%
0 0 0.0000 30 940.7879 MIRcuts:33 188 100.00%
0+ 0 nan nan 835.4778 0.0000 nan 100.00%
0+ 0 nan nan 754.6216 0.0000 nan 100.00%
0+ 0 nan nan 93.2147 0.0000 nan 100.00%
0 2 0.0000 30 93.2147 0.0000 188 100.00%
CPXPARAM_MIP_Cuts_Gomory-FlowCovers-MIRCut:Gomory 0
CPXPARAM_MIP_Cuts_Gomory-FlowCovers-MIRCut:FlowCovers 2
CPXPARAM_MIP_Cuts_Gomory-FlowCovers-MIRCut:MIRCut 0
15
Node Left Objective IInf Best_Integer Best_Bound ItCnt Gap
0 0 0.0000 30 0.0000 18
0+ 0 nan nan 904.1924 0.0000 nan 100.00%
0 0 0.0000 29 904.1924 MIRcuts:36 40 100.00%
0+ 0 nan nan 891.6723 0.0000 nan 100.00%
0 0 0.0000 29 891.6723 MIRcuts:51 144 100.00%
0+ 0 nan nan 602.0844 0.0000 nan 100.00%
0 0 0.0000 28 602.0844 MIRcuts:56 240 100.00%
0+ 0 nan nan 449.5832 0.0000 nan 100.00%
0+ 0 nan nan 375.3790 0.0000 nan 100.00%
0+ 0 nan nan 182.1791 0.0000 nan 100.00%
0 2 0.0000 28 182.1791 0.0000 240 100.00%
CPXPARAM_MIP_Cuts_Gomory-FlowCovers-MIRCut:Gomory 0
CPXPARAM_MIP_Cuts_Gomory-FlowCovers-MIRCut:FlowCovers 19
CPXPARAM_MIP_Cuts_Gomory-FlowCovers-MIRCut:MIRCut 0
16
Node Left Objective IInf Best_Integer Best_Bound ItCnt Gap
0 0 0.0000 29 0.0000 16
0+ 0 nan nan 1089.1526 0.0000 nan 100.00%
0 0 0.0000 29 1089.1526 MIRcuts:29 30 100.00%
0+ 0 nan nan 1082.2384 0.0000 nan 100.00%
0 0 0.0000 29 1082.2384 MIRcuts:30 48 100.00%
0+ 0 nan nan 962.6162 0.0000 nan 100.00%
0+ 0 nan nan 524.3721 0.0000 nan 100.00%
0 2 0.0000 29 524.3721 0.0000 48 100.00%
CPXPARAM_MIP_Cuts_Gomory-FlowCovers-MIRCut:Gomory 0
CPXPARAM_MIP_Cuts_Gomory-FlowCovers-MIRCut:FlowCovers 2
CPXPARAM_MIP_Cuts_Gomory-FlowCovers-MIRCut:MIRCut 0
17
Node Left Objective IInf Best_Integer Best_Bound ItCnt Gap
0 0 0.0000 30 0.0000 18
0+ 0 nan nan 946.0220 0.0000 nan 100.00%
0 0 0.0000 30 946.0220 Cuts:82 172 100.00%
0 0 0.0000 29 946.0220 MIRcuts:50 299 100.00%
0+ 0 nan nan 105.2932 0.0000 nan 100.00%
0+ 0 nan nan 30.0770 0.0000 nan 100.00%
0 2 0.0000 29 30.0770 0.0000 299 100.00%
CPXPARAM_MIP_Cuts_Gomory-FlowCovers-MIRCut:Gomory 0
CPXPARAM_MIP_Cuts_Gomory-FlowCovers-MIRCut:FlowCovers 19
CPXPARAM_MIP_Cuts_Gomory-FlowCovers-MIRCut:MIRCut 0
18
Node Left Objective IInf Best_Integer Best_Bound ItCnt Gap
0 0 0.0000 29 0.0000 17
0+ 0 nan nan 1085.0621 0.0000 nan 100.00%
0 0 0.0000 31 1085.0621 MIRcuts:52 134 100.00%
0+ 0 nan nan 829.0652 0.0000 nan 100.00%
0 0 0.0000 28 829.0652 Cuts:67 193 100.00%
0+ 0 nan nan 725.8617 0.0000 nan 100.00%
0 0 0.0000 23 725.8617 MIRcuts:41 299 100.00%
0+ 0 nan nan 377.1218 0.0000 nan 100.00%
0 0 0.0000 27 377.1218 MIRcuts:28 331 100.00%
0+ 0 nan nan 206.0312 0.0000 nan 100.00%
0+ 0 nan nan 135.1729 0.0000 nan 100.00%
0+ 0 nan nan 95.3481 0.0000 nan 100.00%
0+ 0 nan nan 52.9009 0.0000 nan 100.00%
0 2 0.0000 27 52.9009 0.0000 331 100.00%
CPXPARAM_MIP_Cuts_Gomory-FlowCovers-MIRCut:Gomory 0
CPXPARAM_MIP_Cuts_Gomory-FlowCovers-MIRCut:FlowCovers 15
CPXPARAM_MIP_Cuts_Gomory-FlowCovers-MIRCut:MIRCut 0
19
Node Left Objective IInf Best_Integer Best_Bound ItCnt Gap
0 0 0.0000 29 0.0000 18
0+ 0 nan nan 957.8379 0.0000 nan 100.00%
0 0 0.0000 29 957.8379 MIRcuts:45 145 100.00%
0 0 0.0000 30 957.8379 MIRcuts:59 272 100.00%
0+ 0 nan nan 789.5179 0.0000 nan 100.00%
0+ 0 nan nan 449.5287 0.0000 nan 100.00%
0+ 0 nan nan 32.5445 0.0000 nan 100.00%
0 2 0.0000 30 32.5445 0.0000 272 100.00%
CPXPARAM_MIP_Cuts_Gomory-FlowCovers-MIRCut:Gomory 0
CPXPARAM_MIP_Cuts_Gomory-FlowCovers-MIRCut:FlowCovers 22
CPXPARAM_MIP_Cuts_Gomory-FlowCovers-MIRCut:MIRCut 0
20
Node Left Objective IInf Best_Integer Best_Bound ItCnt Gap
0 0 0.0000 29 0.0000 17
0+ 0 nan nan 878.7294 0.0000 nan 100.00%
0 0 0.0000 33 878.7294 MIRcuts:56 126 100.00%
0+ 0 nan nan 707.1481 0.0000 nan 100.00%
0 0 0.0000 31 707.1481 Cuts:33 244 100.00%
0+ 0 nan nan 447.5483 0.0000 nan 100.00%
0 0 0.0000 34 447.5483 Cuts:40 293 100.00%
0+ 0 nan nan 416.3666 0.0000 nan 100.00%
0+ 0 nan nan 213.1139 0.0000 nan 100.00%
0+ 0 nan nan 135.9351 0.0000 nan 100.00%
0 2 0.0000 34 135.9351 0.0000 293 100.00%
CPXPARAM_MIP_Cuts_Gomory-FlowCovers-MIRCut:Gomory 8
CPXPARAM_MIP_Cuts_Gomory-FlowCovers-MIRCut:FlowCovers 11
CPXPARAM_MIP_Cuts_Gomory-FlowCovers-MIRCut:MIRCut 0
21
Node Left Objective IInf Best_Integer Best_Bound ItCnt Gap
0 0 0.0000 29 0.0000 18
0+ 0 nan nan 606.4076 0.0000 nan 100.00%
0 0 0.0000 28 606.4076 MIRcuts:50 90 100.00%
0+ 0 nan nan 398.2928 0.0000 nan 100.00%
0 0 0.0000 27 398.2928 MIRcuts:26 116 100.00%
0+ 0 nan nan 171.3164 0.0000 nan 100.00%
0 0 0.0000 27 171.3164 MIRcuts:8 122 100.00%
0+ 0 nan nan 163.5647 0.0000 nan 100.00%
0+ 0 nan nan 14.1185 0.0000 nan 100.00%
0 2 0.0000 27 14.1185 0.0000 122 100.00%
CPXPARAM_MIP_Cuts_Gomory-FlowCovers-MIRCut:Gomory 0
CPXPARAM_MIP_Cuts_Gomory-FlowCovers-MIRCut:FlowCovers 13
CPXPARAM_MIP_Cuts_Gomory-FlowCovers-MIRCut:MIRCut 0
22
Node Left Objective IInf Best_Integer Best_Bound ItCnt Gap
0 0 0.0000 29 0.0000 19
0+ 0 nan nan 901.0984 0.0000 nan 100.00%
0 0 0.0000 31 901.0984 Cuts:63 222 100.00%
0+ 0 nan nan 426.3824 0.0000 nan 100.00%
0 0 0.0000 28 426.3824 MIRcuts:30 269 100.00%
0+ 0 nan nan 335.9954 0.0000 nan 100.00%
0 0 0.0000 28 335.9954 MIRcuts:30 317 100.00%
0+ 0 nan nan 317.3544 0.0000 nan 100.00%
0+ 0 nan nan 273.2501 0.0000 nan 100.00%
0+ 0 nan nan 83.0151 0.0000 nan 100.00%
0 2 0.0000 28 83.0151 0.0000 317 100.00%
CPXPARAM_MIP_Cuts_Gomory-FlowCovers-MIRCut:Gomory 0
CPXPARAM_MIP_Cuts_Gomory-FlowCovers-MIRCut:FlowCovers 8
CPXPARAM_MIP_Cuts_Gomory-FlowCovers-MIRCut:MIRCut 0
23
Node Left Objective IInf Best_Integer Best_Bound ItCnt Gap
0 0 0.0000 29 0.0000 19
0+ 0 nan nan 599.6998 0.0000 nan 100.00%
0 0 0.0000 30 599.6998 MIRcuts:54 111 100.00%
0+ 0 nan nan 210.6095 0.0000 nan 100.00%
0 0 0.0000 26 210.6095 MIRcuts:62 199 100.00%
0+ 0 nan nan 164.6715 0.0000 nan 100.00%
0 0 0.0000 23 164.6715 MIRcuts:44 291 100.00%
0+ 0 nan nan 22.6061 0.0000 nan 100.00%
0 0 0.0000 22 22.6061 MIRcuts:43 389 100.00%
0 2 0.0000 22 22.6061 0.0000 389 100.00%
CPXPARAM_MIP_Cuts_Gomory-FlowCovers-MIRCut:Gomory 0
CPXPARAM_MIP_Cuts_Gomory-FlowCovers-MIRCut:FlowCovers 14
CPXPARAM_MIP_Cuts_Gomory-FlowCovers-MIRCut:MIRCut 0
24
Node Left Objective IInf Best_Integer Best_Bound ItCnt Gap
0 0 0.0000 29 0.0000 17
0+ 0 nan nan 939.6644 0.0000 nan 100.00%
0 0 0.0000 29 939.6644 MIRcuts:29 45 100.00%
0+ 0 nan nan 884.1778 0.0000 nan 100.00%
0 0 0.0000 32 884.1778 Cuts:61 196 100.00%
0+ 0 nan nan 707.1260 0.0000 nan 100.00%
0+ 0 nan nan 662.0569 0.0000 nan 100.00%
0+ 0 nan nan 86.4907 0.0000 nan 100.00%
0 2 0.0000 32 86.4907 0.0000 196 100.00%
CPXPARAM_MIP_Cuts_Gomory-FlowCovers-MIRCut:Gomory 4
CPXPARAM_MIP_Cuts_Gomory-FlowCovers-MIRCut:FlowCovers 6
CPXPARAM_MIP_Cuts_Gomory-FlowCovers-MIRCut:MIRCut 0
25
Node Left Objective IInf Best_Integer Best_Bound ItCnt Gap
0 0 0.0000 29 0.0000 18
0+ 0 nan nan 699.1337 0.0000 nan 100.00%
0 0 0.0000 29 699.1337 MIRcuts:57 92 100.00%
0+ 0 nan nan 690.8041 0.0000 nan 100.00%
0 0 0.0000 28 690.8041 MIRcuts:42 144 100.00%
0+ 0 nan nan 430.0060 0.0000 nan 100.00%
0+ 0 nan nan 413.1220 0.0000 nan 100.00%
0+ 0 nan nan 242.4825 0.0000 nan 100.00%
0 2 0.0000 28 242.4825 0.0000 144 100.00%
CPXPARAM_MIP_Cuts_Gomory-FlowCovers-MIRCut:Gomory 0
CPXPARAM_MIP_Cuts_Gomory-FlowCovers-MIRCut:FlowCovers 12
CPXPARAM_MIP_Cuts_Gomory-FlowCovers-MIRCut:MIRCut 0
26
Node Left Objective IInf Best_Integer Best_Bound ItCnt Gap
0 0 0.0000 29 0.0000 19
0+ 0 nan nan 938.1434 0.0000 nan 100.00%
0 0 0.0000 32 938.1434 MIRcuts:56 134 100.00%
0+ 0 nan nan 841.3153 0.0000 nan 100.00%
0 0 0.0000 29 841.3153 Cuts:55 187 100.00%
0+ 0 nan nan 790.2904 0.0000 nan 100.00%
0 0 0.0000 30 790.2904 MIRcuts:47 274 100.00%
0+ 0 nan nan 780.7616 0.0000 nan 100.00%
0+ 0 nan nan 723.2042 0.0000 nan 100.00%
0+ 0 nan nan 100.9728 0.0000 nan 100.00%
0 2 0.0000 30 100.9728 0.0000 274 100.00%
CPXPARAM_MIP_Cuts_Gomory-FlowCovers-MIRCut:Gomory 0
CPXPARAM_MIP_Cuts_Gomory-FlowCovers-MIRCut:FlowCovers 5
CPXPARAM_MIP_Cuts_Gomory-FlowCovers-MIRCut:MIRCut 1
27
Node Left Objective IInf Best_Integer Best_Bound ItCnt Gap
0 0 0.0000 29 0.0000 19
0+ 0 nan nan 695.3404 0.0000 nan 100.00%
0 0 0.0000 29 695.3404 MIRcuts:44 137 100.00%
0 0 0.0000 28 695.3404 MIRcuts:68 236 100.00%
0+ 0 nan nan 462.5456 0.0000 nan 100.00%
0+ 0 nan nan 156.9565 0.0000 nan 100.00%
0+ 0 nan nan 86.1161 0.0000 nan 100.00%
0 2 0.0000 28 86.1161 0.0000 236 100.00%
CPXPARAM_MIP_Cuts_Gomory-FlowCovers-MIRCut:Gomory 0
CPXPARAM_MIP_Cuts_Gomory-FlowCovers-MIRCut:FlowCovers 21
CPXPARAM_MIP_Cuts_Gomory-FlowCovers-MIRCut:MIRCut 0
28
Node Left Objective IInf Best_Integer Best_Bound ItCnt Gap
0 0 0.0000 30 0.0000 16
0+ 0 nan nan 1316.0757 0.0000 nan 100.00%
0 0 0.0000 30 1316.0757 MIRcuts:30 231 100.00%
0+ 0 nan nan 1164.8581 0.0000 nan 100.00%
0 0 0.0000 28 1164.8581 Cuts:54 391 100.00%
0+ 0 nan nan 437.8945 0.0000 nan 100.00%
0 0 0.0000 24 437.8945 Cuts:33 534 100.00%
0+ 0 nan nan 311.1913 0.0000 nan 100.00%
0 0 0.0000 26 311.1913 MIRcuts:25 656 100.00%
0+ 0 nan nan 204.9853 0.0000 nan 100.00%
0+ 0 nan nan 193.7575 0.0000 nan 100.00%
0+ 0 nan nan 86.1695 0.0000 nan 100.00%
0+ 0 nan nan 53.4989 0.0000 nan 100.00%
0 0 -1.00000e+75 0 53.4989 0.0000 656 100.00%
0 2 0.0000 26 53.4989 0.0000 656 100.00%
CPXPARAM_MIP_Cuts_Gomory-FlowCovers-MIRCut:Gomory 4
CPXPARAM_MIP_Cuts_Gomory-FlowCovers-MIRCut:FlowCovers 10
CPXPARAM_MIP_Cuts_Gomory-FlowCovers-MIRCut:MIRCut 0
29
Node Left Objective IInf Best_Integer Best_Bound ItCnt Gap
0 0 0.0000 28 0.0000 16
0+ 0 nan nan 968.9340 0.0000 nan 100.00%
0 0 0.0000 28 968.9340 MIRcuts:52 75 100.00%
0 0 0.0000 28 968.9340 MIRcuts:45 139 100.00%
0+ 0 nan nan 461.3525 0.0000 nan 100.00%
0+ 0 nan nan 326.7391 0.0000 nan 100.00%
0+ 0 nan nan 22.2512 0.0000 nan 100.00%
0 2 0.0000 28 22.2512 0.0000 139 100.00%
CPXPARAM_MIP_Cuts_Gomory-FlowCovers-MIRCut:Gomory 0
CPXPARAM_MIP_Cuts_Gomory-FlowCovers-MIRCut:FlowCovers 19
CPXPARAM_MIP_Cuts_Gomory-FlowCovers-MIRCut:MIRCut 0
30
Node Left Objective IInf Best_Integer Best_Bound ItCnt Gap
0 0 0.0000 29 0.0000 17
0+ 0 nan nan 1312.7512 0.0000 nan 100.00%
0 0 0.0000 27 1312.7512 MIRcuts:33 94 100.00%
0+ 0 nan nan 1105.8606 0.0000 nan 100.00%
0 0 0.0000 26 1105.8606 Cuts:77 198 100.00%
0+ 0 nan nan 767.9936 0.0000 nan 100.00%
0 0 0.0000 23 767.9936 Cuts:45 249 100.00%
0+ 0 nan nan 384.5977 0.0000 nan 100.00%
0 0 0.0000 26 384.5977 Cuts:25 276 100.00%
0+ 0 nan nan 71.3357 0.0000 nan 100.00%
0+ 0 nan nan 70.5630 0.0000 nan 100.00%
0+ 0 nan nan 67.9066 0.0000 nan 100.00%
0 0 -1.00000e+75 0 67.9066 0.0000 276 100.00%
0 2 0.0000 26 67.9066 0.0000 276 100.00%
CPXPARAM_MIP_Cuts_Gomory-FlowCovers-MIRCut:Gomory 8
CPXPARAM_MIP_Cuts_Gomory-FlowCovers-MIRCut:FlowCovers 4
CPXPARAM_MIP_Cuts_Gomory-FlowCovers-MIRCut:MIRCut 0
31
Node Left Objective IInf Best_Integer Best_Bound ItCnt Gap
0 0 0.0000 26 0.0000 17
0+ 0 nan nan 709.8381 0.0000 nan 100.00%
0 0 0.0000 24 709.8381 MIRcuts:41 41 100.00%
0+ 0 nan nan 567.0256 0.0000 nan 100.00%
0 0 0.0000 22 567.0256 MIRcuts:55 149 100.00%
0+ 0 nan nan 268.3889 0.0000 nan 100.00%
0 0 0.0000 20 268.3889 MIRcuts:50 199 100.00%
0+ 0 nan nan 76.7316 0.0000 nan 100.00%
0 0 0.0000 17 76.7316 MIRcuts:17 238 100.00%
0+ 0 nan nan 66.8753 0.0000 nan 100.00%
0+ 0 nan nan 10.5127 0.0000 nan 100.00%
0+ 0 nan nan 10.4655 0.0000 nan 100.00%
0+ 0 nan nan 5.9369 0.0000 nan 100.00%
0 0 -1.00000e+75 0 5.9369 0.0000 238 100.00%
0 2 0.0000 17 5.9369 0.0000 238 100.00%
CPXPARAM_MIP_Cuts_Gomory-FlowCovers-MIRCut:Gomory 0
CPXPARAM_MIP_Cuts_Gomory-FlowCovers-MIRCut:FlowCovers 13
CPXPARAM_MIP_Cuts_Gomory-FlowCovers-MIRCut:MIRCut 0
32
Node Left Objective IInf Best_Integer Best_Bound ItCnt Gap
0 0 0.0000 29 0.0000 17
0+ 0 nan nan 1030.0515 0.0000 nan 100.00%
0 0 0.0000 29 1030.0515 MIRcuts:29 37 100.00%
0+ 0 nan nan 893.3000 0.0000 nan 100.00%
0 0 0.0000 28 893.3000 Cuts:48 144 100.00%
0+ 0 nan nan 663.9579 0.0000 nan 100.00%
0+ 0 nan nan 103.3272 0.0000 nan 100.00%
0+ 0 nan nan 49.9385 0.0000 nan 100.00%
0 0 -1.00000e+75 0 49.9385 0.0000 144 100.00%
0 2 0.0000 28 49.9385 0.0000 144 100.00%
CPXPARAM_MIP_Cuts_Gomory-FlowCovers-MIRCut:Gomory 1
CPXPARAM_MIP_Cuts_Gomory-FlowCovers-MIRCut:FlowCovers 7
CPXPARAM_MIP_Cuts_Gomory-FlowCovers-MIRCut:MIRCut 0
33
Node Left Objective IInf Best_Integer Best_Bound ItCnt Gap
0 0 0.0000 28 0.0000 18
0+ 0 nan nan 717.9699 0.0000 nan 100.00%
0 0 0.0000 29 717.9699 MIRcuts:59 93 100.00%
0 0 0.0000 28 717.9699 MIRcuts:43 135 100.00%
0+ 0 nan nan 412.4315 0.0000 nan 100.00%
0+ 0 nan nan 411.8400 0.0000 nan 100.00%
0+ 0 nan nan 59.9601 0.0000 nan 100.00%
0 2 0.0000 28 59.9601 0.0000 135 100.00%
CPXPARAM_MIP_Cuts_Gomory-FlowCovers-MIRCut:Gomory 0
CPXPARAM_MIP_Cuts_Gomory-FlowCovers-MIRCut:FlowCovers 19
CPXPARAM_MIP_Cuts_Gomory-FlowCovers-MIRCut:MIRCut 0
34
Node Left Objective IInf Best_Integer Best_Bound ItCnt Gap
0 0 0.0000 29 0.0000 18
0+ 0 nan nan 1021.8941 0.0000 nan 100.00%
0 0 0.0000 29 1021.8941 MIRcuts:56 94 100.00%
0+ 0 nan nan 934.8453 0.0000 nan 100.00%
0 0 0.0000 28 934.8453 MIRcuts:29 132 100.00%
0+ 0 nan nan 853.6626 0.0000 nan 100.00%
0+ 0 nan nan 226.3025 0.0000 nan 100.00%
0 2 0.0000 28 226.3025 0.0000 132 100.00%
CPXPARAM_MIP_Cuts_Gomory-FlowCovers-MIRCut:Gomory 0
CPXPARAM_MIP_Cuts_Gomory-FlowCovers-MIRCut:FlowCovers 2
CPXPARAM_MIP_Cuts_Gomory-FlowCovers-MIRCut:MIRCut 0
35
Node Left Objective IInf Best_Integer Best_Bound ItCnt Gap
0 0 0.0000 29 0.0000 19
0+ 0 nan nan 827.1110 0.0000 nan 100.00%
0 0 0.0000 30 827.1110 MIRcuts:47 103 100.00%
0+ 0 nan nan 796.2710 0.0000 nan 100.00%
0 0 0.0000 27 796.2710 MIRcuts:66 270 100.00%
0+ 0 nan nan 359.3098 0.0000 nan 100.00%
0 0 0.0000 27 359.3098 MIRcuts:47 482 100.00%
0+ 0 nan nan 268.7967 0.0000 nan 100.00%
0+ 0 nan nan 41.4800 0.0000 nan 100.00%
0 2 0.0000 27 41.4800 0.0000 482 100.00%
CPXPARAM_MIP_Cuts_Gomory-FlowCovers-MIRCut:Gomory 0
CPXPARAM_MIP_Cuts_Gomory-FlowCovers-MIRCut:FlowCovers 18
CPXPARAM_MIP_Cuts_Gomory-FlowCovers-MIRCut:MIRCut 0
36
Node Left Objective IInf Best_Integer Best_Bound ItCnt Gap
0 0 0.0000 29 0.0000 16
0+ 0 nan nan 894.7095 0.0000 nan 100.00%
0 0 0.0000 29 894.7095 MIRcuts:70 239 100.00%
0+ 0 nan nan 828.4369 0.0000 nan 100.00%
0 0 0.0000 26 828.4369 Cuts:31 351 100.00%
0+ 0 nan nan 657.4578 0.0000 nan 100.00%
0 0 0.0000 28 657.4578 Cuts:30 402 100.00%
0+ 0 nan nan 344.2143 0.0000 nan 100.00%
0+ 0 nan nan 254.2766 0.0000 nan 100.00%
0 2 0.0000 28 254.2766 0.0000 402 100.00%
CPXPARAM_MIP_Cuts_Gomory-FlowCovers-MIRCut:Gomory 2
CPXPARAM_MIP_Cuts_Gomory-FlowCovers-MIRCut:FlowCovers 15
CPXPARAM_MIP_Cuts_Gomory-FlowCovers-MIRCut:MIRCut 0
37
Node Left Objective IInf Best_Integer Best_Bound ItCnt Gap
0 0 0.0000 28 0.0000 17
0+ 0 nan nan 593.1735 0.0000 nan 100.00%
0 0 0.0000 29 593.1735 MIRcuts:67 105 100.00%
0 0 0.0000 28 593.1735 MIRcuts:58 287 100.00%
0+ 0 nan nan 362.4505 0.0000 nan 100.00%
0+ 0 nan nan 282.9706 0.0000 nan 100.00%
0+ 0 nan nan 37.2457 0.0000 nan 100.00%
0 2 0.0000 28 37.2457 0.0000 287 100.00%
CPXPARAM_MIP_Cuts_Gomory-FlowCovers-MIRCut:Gomory 0
CPXPARAM_MIP_Cuts_Gomory-FlowCovers-MIRCut:FlowCovers 12
CPXPARAM_MIP_Cuts_Gomory-FlowCovers-MIRCut:MIRCut 0
38
Node Left Objective IInf Best_Integer Best_Bound ItCnt Gap
0 0 0.0000 28 0.0000 17
0+ 0 nan nan 919.5293 0.0000 nan 100.00%
0 0 0.0000 28 919.5293 MIRcuts:43 47 100.00%
0+ 0 nan nan 765.3340 0.0000 nan 100.00%
0 0 0.0000 27 765.3340 MIRcuts:36 114 100.00%
0+ 0 nan nan 734.8760 0.0000 nan 100.00%
0 2 0.0000 27 734.8760 0.0000 114 100.00%
CPXPARAM_MIP_Cuts_Gomory-FlowCovers-MIRCut:Gomory 0
CPXPARAM_MIP_Cuts_Gomory-FlowCovers-MIRCut:FlowCovers 2
CPXPARAM_MIP_Cuts_Gomory-FlowCovers-MIRCut:MIRCut 0
39
Node Left Objective IInf Best_Integer Best_Bound ItCnt Gap
0 0 0.0000 28 0.0000 17
0+ 0 nan nan 624.0818 0.0000 nan 100.00%
0 0 0.0000 26 624.0818 MIRcuts:33 33 100.00%
0+ 0 nan nan 498.3641 0.0000 nan 100.00%
0 0 0.0000 28 498.3641 MIRcuts:58 123 100.00%
0+ 0 nan nan 498.0587 0.0000 nan 100.00%
0 0 0.0000 25 498.0587 Cuts:69 316 100.00%
0+ 0 nan nan 165.3848 0.0000 nan 100.00%
0 0 0.0000 25 165.3848 Cuts:44 385 100.00%
0+ 0 nan nan 25.7251 0.0000 nan 100.00%
0 2 0.0000 25 25.7251 0.0000 385 100.00%
CPXPARAM_MIP_Cuts_Gomory-FlowCovers-MIRCut:Gomory 1
CPXPARAM_MIP_Cuts_Gomory-FlowCovers-MIRCut:FlowCovers 26
CPXPARAM_MIP_Cuts_Gomory-FlowCovers-MIRCut:MIRCut 0
